c Qdimacs file from skolem function generator
p cnf 572 1566
a 380 509 510 511 512 513 514 515 516 517 518 519 520 521 522 523 524 525 526 527 528 529 530 531 532 533 534 535 536 537 538 539 540 541 542 543 544 545 546 547 548 549 550 551 552 553 554 555 556 557 558 559 560 561 562 563 564 565 566 567 568 569 570 571 0
e 381 382 383 384 385 386 387 388 389 390 391 392 393 394 395 396 397 398 399 400 401 402 403 404 405 406 407 408 409 410 411 412 413 414 415 416 417 418 419 420 421 422 423 424 425 426 427 428 429 430 431 432 433 434 435 436 437 438 439 440 441 442 443 444 445 446 447 448 449 450 451 452 453 454 455 456 457 458 459 460 461 462 463 464 465 466 467 468 469 470 471 472 473 474 475 476 477 478 479 480 481 482 483 484 485 486 487 488 489 490 491 492 493 494 495 496 497 498 499 500 501 502 503 504 505 506 507 508 1 2 3 4 5 6 7 8 9 10 11 12 13 14 15 16 17 18 19 20 21 22 23 24 25 26 27 28 29 30 31 32 33 34 35 36 37 38 39 40 41 42 43 44 45 46 47 48 49 50 51 52 53 54 55 56 57 58 59 60 61 62 63 64 65 66 67 68 69 70 71 72 73 74 75 76 77 78 79 80 81 82 83 84 85 86 87 88 89 90 91 92 93 94 95 96 97 98 99 100 101 102 103 104 105 106 107 108 109 110 111 112 113 114 115 116 117 118 119 120 121 122 123 124 125 126 127 128 129 130 131 132 133 134 135 136 137 138 139 140 141 142 143 144 145 146 147 148 149 150 151 152 153 154 155 156 157 158 159 160 161 162 163 164 165 166 167 168 169 170 171 172 173 174 175 176 177 178 179 180 181 182 183 184 185 186 187 188 189 190 191 192 193 194 195 196 197 198 199 200 201 202 203 204 205 206 207 208 209 210 211 212 213 214 215 216 217 218 219 220 221 222 223 224 225 226 227 228 229 230 231 232 233 234 235 236 237 238 239 240 241 242 243 244 245 246 247 248 249 250 251 252 253 254 255 256 257 258 259 260 261 262 263 264 265 266 267 268 269 270 271 272 273 274 275 276 277 278 279 280 281 282 283 284 285 286 287 288 289 290 291 292 293 294 295 296 297 298 299 300 301 302 303 304 305 306 307 308 309 310 311 312 313 314 315 316 317 318 319 320 321 322 323 324 325 326 327 328 329 330 331 332 333 334 335 336 337 338 339 340 341 342 343 344 345 346 347 348 349 350 351 352 353 354 355 356 357 358 359 360 361 362 363 364 365 366 367 368 369 370 371 372 373 374 375 376 377 378 379 572 0
4 5 135 -140 0
-4 140 0
-4 -135 0
-4 -5 0
5 509 -6 0
5 -509 6 0
-5 -509 -6 0
-5 509 6 0
6 -7 -134 0
6 7 134 0
-6 7 -134 0
-6 -7 134 0
7 383 8 0
7 384 8 0
-7 -8 0
-7 -383 -384 0
8 383 -384 9 0
8 -383 384 9 0
-8 -9 0
-8 383 384 0
-8 -383 -384 0
9 385 10 0
9 386 10 0
-9 -10 0
-9 -385 -386 0
10 385 -386 11 0
10 -385 386 11 0
-10 -11 0
-10 385 386 0
-10 -385 -386 0
11 387 12 0
11 388 12 0
-11 -12 0
-11 -387 -388 0
12 387 -388 13 0
12 -387 388 13 0
-12 -13 0
-12 387 388 0
-12 -387 -388 0
13 389 14 0
13 390 14 0
-13 -14 0
-13 -389 -390 0
14 389 -390 15 0
14 -389 390 15 0
-14 -15 0
-14 389 390 0
-14 -389 -390 0
15 391 16 0
15 392 16 0
-15 -16 0
-15 -391 -392 0
16 391 -392 17 0
16 -391 392 17 0
-16 -17 0
-16 391 392 0
-16 -391 -392 0
17 393 18 0
17 394 18 0
-17 -18 0
-17 -393 -394 0
18 393 -394 19 0
18 -393 394 19 0
-18 -19 0
-18 393 394 0
-18 -393 -394 0
19 395 20 0
19 396 20 0
-19 -20 0
-19 -395 -396 0
20 21 -133 0
-20 -21 0
-20 133 0
21 397 22 0
21 398 22 0
-21 -22 0
-21 -397 -398 0
22 397 -398 23 0
22 -397 398 23 0
-22 -23 0
-22 397 398 0
-22 -397 -398 0
23 399 24 0
23 400 24 0
-23 -24 0
-23 -399 -400 0
24 399 -400 25 0
24 -399 400 25 0
-24 -25 0
-24 399 400 0
-24 -399 -400 0
25 401 26 0
25 402 26 0
-25 -26 0
-25 -401 -402 0
26 401 -402 27 0
26 -401 402 27 0
-26 -27 0
-26 401 402 0
-26 -401 -402 0
27 403 28 0
27 404 28 0
-27 -28 0
-27 -403 -404 0
28 403 -404 29 0
28 -403 404 29 0
-28 -29 0
-28 403 404 0
-28 -403 -404 0
29 405 30 0
29 406 30 0
-29 -30 0
-29 -405 -406 0
30 405 -406 31 0
30 -405 406 31 0
-30 -31 0
-30 405 406 0
-30 -405 -406 0
31 407 32 0
31 408 32 0
-31 -32 0
-31 -407 -408 0
32 407 -408 33 0
32 -407 408 33 0
-32 -33 0
-32 407 408 0
-32 -407 -408 0
33 409 34 0
33 410 34 0
-33 -34 0
-33 -409 -410 0
34 409 -410 35 0
34 -409 410 35 0
-34 -35 0
-34 409 410 0
-34 -409 -410 0
35 411 36 0
35 412 36 0
-35 -36 0
-35 -411 -412 0
36 411 -412 37 0
36 -411 412 37 0
-36 -37 0
-36 411 412 0
-36 -411 -412 0
37 413 38 0
37 414 38 0
-37 -38 0
-37 -413 -414 0
38 413 -414 39 0
38 -413 414 39 0
-38 -39 0
-38 413 414 0
-38 -413 -414 0
39 415 40 0
39 416 40 0
-39 -40 0
-39 -415 -416 0
40 415 -416 41 0
40 -415 416 41 0
-40 -41 0
-40 415 416 0
-40 -415 -416 0
41 417 42 0
41 418 42 0
-41 -42 0
-41 -417 -418 0
42 417 -418 43 0
42 -417 418 43 0
-42 -43 0
-42 417 418 0
-42 -417 -418 0
43 419 44 0
43 420 44 0
-43 -44 0
-43 -419 -420 0
44 419 -420 45 0
44 -419 420 45 0
-44 -45 0
-44 419 420 0
-44 -419 -420 0
45 421 46 0
45 422 46 0
-45 -46 0
-45 -421 -422 0
46 421 -422 47 0
46 -421 422 47 0
-46 -47 0
-46 421 422 0
-46 -421 -422 0
47 423 48 0
47 424 48 0
-47 -48 0
-47 -423 -424 0
48 423 -424 49 0
48 -423 424 49 0
-48 -49 0
-48 423 424 0
-48 -423 -424 0
49 425 50 0
49 426 50 0
-49 -50 0
-49 -425 -426 0
50 425 -426 51 0
50 -425 426 51 0
-50 -51 0
-50 425 426 0
-50 -425 -426 0
51 427 52 0
51 428 52 0
-51 -52 0
-51 -427 -428 0
52 53 -132 0
-52 -53 0
-52 132 0
53 429 54 0
53 430 54 0
-53 -54 0
-53 -429 -430 0
54 429 -430 55 0
54 -429 430 55 0
-54 -55 0
-54 429 430 0
-54 -429 -430 0
55 431 56 0
55 432 56 0
-55 -56 0
-55 -431 -432 0
56 431 -432 57 0
56 -431 432 57 0
-56 -57 0
-56 431 432 0
-56 -431 -432 0
57 433 58 0
57 434 58 0
-57 -58 0
-57 -433 -434 0
58 433 -434 59 0
58 -433 434 59 0
-58 -59 0
-58 433 434 0
-58 -433 -434 0
59 435 60 0
59 436 60 0
-59 -60 0
-59 -435 -436 0
60 435 -436 61 0
60 -435 436 61 0
-60 -61 0
-60 435 436 0
-60 -435 -436 0
61 437 62 0
61 438 62 0
-61 -62 0
-61 -437 -438 0
62 437 -438 63 0
62 -437 438 63 0
-62 -63 0
-62 437 438 0
-62 -437 -438 0
63 439 64 0
63 440 64 0
-63 -64 0
-63 -439 -440 0
64 439 -440 65 0
64 -439 440 65 0
-64 -65 0
-64 439 440 0
-64 -439 -440 0
65 441 66 0
65 442 66 0
-65 -66 0
-65 -441 -442 0
66 441 -442 67 0
66 -441 442 67 0
-66 -67 0
-66 441 442 0
-66 -441 -442 0
67 443 68 0
67 444 68 0
-67 -68 0
-67 -443 -444 0
68 443 -444 69 0
68 -443 444 69 0
-68 -69 0
-68 443 444 0
-68 -443 -444 0
69 445 70 0
69 446 70 0
-69 -70 0
-69 -445 -446 0
70 445 -446 71 0
70 -445 446 71 0
-70 -71 0
-70 445 446 0
-70 -445 -446 0
71 447 72 0
71 448 72 0
-71 -72 0
-71 -447 -448 0
72 447 -448 73 0
72 -447 448 73 0
-72 -73 0
-72 447 448 0
-72 -447 -448 0
73 449 74 0
73 450 74 0
-73 -74 0
-73 -449 -450 0
74 449 -450 75 0
74 -449 450 75 0
-74 -75 0
-74 449 450 0
-74 -449 -450 0
75 451 76 0
75 452 76 0
-75 -76 0
-75 -451 -452 0
76 451 -452 77 0
76 -451 452 77 0
-76 -77 0
-76 451 452 0
-76 -451 -452 0
77 453 78 0
77 454 78 0
-77 -78 0
-77 -453 -454 0
78 453 -454 79 0
78 -453 454 79 0
-78 -79 0
-78 453 454 0
-78 -453 -454 0
79 455 80 0
79 456 80 0
-79 -80 0
-79 -455 -456 0
80 455 -456 81 0
80 -455 456 81 0
-80 -81 0
-80 455 456 0
-80 -455 -456 0
81 457 82 0
81 458 82 0
-81 -82 0
-81 -457 -458 0
82 457 -458 83 0
82 -457 458 83 0
-82 -83 0
-82 457 458 0
-82 -457 -458 0
83 459 84 0
83 460 84 0
-83 -84 0
-83 -459 -460 0
84 85 -131 0
-84 -85 0
-84 131 0
85 461 86 0
85 462 86 0
-85 -86 0
-85 -461 -462 0
86 461 -462 87 0
86 -461 462 87 0
-86 -87 0
-86 461 462 0
-86 -461 -462 0
87 463 88 0
87 464 88 0
-87 -88 0
-87 -463 -464 0
88 463 -464 89 0
88 -463 464 89 0
-88 -89 0
-88 463 464 0
-88 -463 -464 0
89 465 90 0
89 466 90 0
-89 -90 0
-89 -465 -466 0
90 465 -466 91 0
90 -465 466 91 0
-90 -91 0
-90 465 466 0
-90 -465 -466 0
91 467 92 0
91 468 92 0
-91 -92 0
-91 -467 -468 0
92 467 -468 93 0
92 -467 468 93 0
-92 -93 0
-92 467 468 0
-92 -467 -468 0
93 469 94 0
93 470 94 0
-93 -94 0
-93 -469 -470 0
94 469 -470 95 0
94 -469 470 95 0
-94 -95 0
-94 469 470 0
-94 -469 -470 0
95 471 96 0
95 472 96 0
-95 -96 0
-95 -471 -472 0
96 471 -472 97 0
96 -471 472 97 0
-96 -97 0
-96 471 472 0
-96 -471 -472 0
97 473 98 0
97 474 98 0
-97 -98 0
-97 -473 -474 0
98 473 -474 99 0
98 -473 474 99 0
-98 -99 0
-98 473 474 0
-98 -473 -474 0
99 475 100 0
99 476 100 0
-99 -100 0
-99 -475 -476 0
100 475 -476 101 0
100 -475 476 101 0
-100 -101 0
-100 475 476 0
-100 -475 -476 0
101 477 102 0
101 478 102 0
-101 -102 0
-101 -477 -478 0
102 477 -478 103 0
102 -477 478 103 0
-102 -103 0
-102 477 478 0
-102 -477 -478 0
103 479 104 0
103 480 104 0
-103 -104 0
-103 -479 -480 0
104 479 -480 105 0
104 -479 480 105 0
-104 -105 0
-104 479 480 0
-104 -479 -480 0
105 481 106 0
105 482 106 0
-105 -106 0
-105 -481 -482 0
106 107 -130 0
-106 -107 0
-106 130 0
107 483 108 0
107 484 108 0
-107 -108 0
-107 -483 -484 0
108 483 -484 109 0
108 -483 484 109 0
-108 -109 0
-108 483 484 0
-108 -483 -484 0
109 485 110 0
109 486 110 0
-109 -110 0
-109 -485 -486 0
110 485 -486 111 0
110 -485 486 111 0
-110 -111 0
-110 485 486 0
-110 -485 -486 0
111 487 112 0
111 488 112 0
-111 -112 0
-111 -487 -488 0
112 487 -488 113 0
112 -487 488 113 0
-112 -113 0
-112 487 488 0
-112 -487 -488 0
113 489 114 0
113 490 114 0
-113 -114 0
-113 -489 -490 0
114 489 -490 115 0
114 -489 490 115 0
-114 -115 0
-114 489 490 0
-114 -489 -490 0
115 491 116 0
115 492 116 0
-115 -116 0
-115 -491 -492 0
116 491 -492 117 0
116 -491 492 117 0
-116 -117 0
-116 491 492 0
-116 -491 -492 0
117 493 118 0
117 494 118 0
-117 -118 0
-117 -493 -494 0
118 493 -494 119 0
118 -493 494 119 0
-118 -119 0
-118 493 494 0
-118 -493 -494 0
119 495 120 0
119 496 120 0
-119 -120 0
-119 -495 -496 0
120 495 -496 121 0
120 -495 496 121 0
-120 -121 0
-120 495 496 0
-120 -495 -496 0
121 497 122 0
121 498 122 0
-121 -122 0
-121 -497 -498 0
122 497 -498 123 0
122 -497 498 123 0
-122 -123 0
-122 497 498 0
-122 -497 -498 0
123 499 124 0
123 500 124 0
-123 -124 0
-123 -499 -500 0
124 499 -500 125 0
124 -499 500 125 0
-124 -125 0
-124 499 500 0
-124 -499 -500 0
125 501 126 0
125 502 126 0
-125 -126 0
-125 -501 -502 0
126 127 -129 0
-126 -127 0
-126 129 0
127 503 128 0
127 504 128 0
127 503 504 0
-127 -503 -504 0
-127 -504 -128 0
-127 -503 -128 0
128 -505 -506 0
-128 505 0
-128 506 0
129 501 -502 0
129 -501 502 0
-129 -501 -502 0
-129 501 502 0
130 481 -482 0
130 -481 482 0
-130 -481 -482 0
-130 481 482 0
131 459 -460 0
131 -459 460 0
-131 -459 -460 0
-131 459 460 0
132 427 -428 0
132 -427 428 0
-132 -427 -428 0
-132 427 428 0
133 395 -396 0
133 -395 396 0
-133 -395 -396 0
-133 395 396 0
134 381 -382 0
134 -381 382 0
-134 -381 -382 0
-134 381 382 0
135 -136 -138 0
135 136 138 0
-135 136 -138 0
-135 -136 138 0
136 381 137 0
136 382 137 0
-136 -137 0
-136 -381 -382 0
137 381 -382 7 0
137 -381 382 7 0
-137 -7 0
-137 381 382 0
-137 -381 -382 0
138 380 -139 0
138 -380 139 0
-138 -380 -139 0
-138 380 139 0
139 507 -508 0
139 -507 508 0
-139 -507 -508 0
-139 507 508 0
140 141 144 -147 0
-140 147 0
-140 -144 0
-140 -141 0
141 510 -142 0
141 -510 142 0
-141 -510 -142 0
-141 510 142 0
142 -9 -143 0
142 9 143 0
-142 9 -143 0
-142 -9 143 0
143 383 -384 0
143 -383 384 0
-143 -383 -384 0
-143 383 384 0
144 511 -145 0
144 -511 145 0
-144 -511 -145 0
-144 511 145 0
145 -11 -146 0
145 11 146 0
-145 11 -146 0
-145 -11 146 0
146 385 -386 0
146 -385 386 0
-146 -385 -386 0
-146 385 386 0
147 148 151 -154 0
-147 154 0
-147 -151 0
-147 -148 0
148 512 -149 0
148 -512 149 0
-148 -512 -149 0
-148 512 149 0
149 -13 -150 0
149 13 150 0
-149 13 -150 0
-149 -13 150 0
150 387 -388 0
150 -387 388 0
-150 -387 -388 0
-150 387 388 0
151 513 -152 0
151 -513 152 0
-151 -513 -152 0
-151 513 152 0
152 -15 -153 0
152 15 153 0
-152 15 -153 0
-152 -15 153 0
153 389 -390 0
153 -389 390 0
-153 -389 -390 0
-153 389 390 0
154 155 158 -161 0
-154 161 0
-154 -158 0
-154 -155 0
155 514 -156 0
155 -514 156 0
-155 -514 -156 0
-155 514 156 0
156 -17 -157 0
156 17 157 0
-156 17 -157 0
-156 -17 157 0
157 391 -392 0
157 -391 392 0
-157 -391 -392 0
-157 391 392 0
158 515 -159 0
158 -515 159 0
-158 -515 -159 0
-158 515 159 0
159 -19 -160 0
159 19 160 0
-159 19 -160 0
-159 -19 160 0
160 393 -394 0
160 -393 394 0
-160 -393 -394 0
-160 393 394 0
161 162 164 -167 0
-161 167 0
-161 -164 0
-161 -162 0
162 516 -163 0
162 -516 163 0
-162 -516 -163 0
-162 516 163 0
163 -21 -133 0
163 21 133 0
-163 21 -133 0
-163 -21 133 0
164 517 -165 0
164 -517 165 0
-164 -517 -165 0
-164 517 165 0
165 -23 -166 0
165 23 166 0
-165 23 -166 0
-165 -23 166 0
166 397 -398 0
166 -397 398 0
-166 -397 -398 0
-166 397 398 0
167 168 171 -174 0
-167 174 0
-167 -171 0
-167 -168 0
168 518 -169 0
168 -518 169 0
-168 -518 -169 0
-168 518 169 0
169 -25 -170 0
169 25 170 0
-169 25 -170 0
-169 -25 170 0
170 399 -400 0
170 -399 400 0
-170 -399 -400 0
-170 399 400 0
171 519 -172 0
171 -519 172 0
-171 -519 -172 0
-171 519 172 0
172 -27 -173 0
172 27 173 0
-172 27 -173 0
-172 -27 173 0
173 401 -402 0
173 -401 402 0
-173 -401 -402 0
-173 401 402 0
174 175 178 -181 0
-174 181 0
-174 -178 0
-174 -175 0
175 520 -176 0
175 -520 176 0
-175 -520 -176 0
-175 520 176 0
176 -29 -177 0
176 29 177 0
-176 29 -177 0
-176 -29 177 0
177 403 -404 0
177 -403 404 0
-177 -403 -404 0
-177 403 404 0
178 521 -179 0
178 -521 179 0
-178 -521 -179 0
-178 521 179 0
179 -31 -180 0
179 31 180 0
-179 31 -180 0
-179 -31 180 0
180 405 -406 0
180 -405 406 0
-180 -405 -406 0
-180 405 406 0
181 182 185 -188 0
-181 188 0
-181 -185 0
-181 -182 0
182 522 -183 0
182 -522 183 0
-182 -522 -183 0
-182 522 183 0
183 -33 -184 0
183 33 184 0
-183 33 -184 0
-183 -33 184 0
184 407 -408 0
184 -407 408 0
-184 -407 -408 0
-184 407 408 0
185 523 -186 0
185 -523 186 0
-185 -523 -186 0
-185 523 186 0
186 -35 -187 0
186 35 187 0
-186 35 -187 0
-186 -35 187 0
187 409 -410 0
187 -409 410 0
-187 -409 -410 0
-187 409 410 0
188 189 192 -195 0
-188 195 0
-188 -192 0
-188 -189 0
189 524 -190 0
189 -524 190 0
-189 -524 -190 0
-189 524 190 0
190 -37 -191 0
190 37 191 0
-190 37 -191 0
-190 -37 191 0
191 411 -412 0
191 -411 412 0
-191 -411 -412 0
-191 411 412 0
192 525 -193 0
192 -525 193 0
-192 -525 -193 0
-192 525 193 0
193 -39 -194 0
193 39 194 0
-193 39 -194 0
-193 -39 194 0
194 413 -414 0
194 -413 414 0
-194 -413 -414 0
-194 413 414 0
195 196 199 -202 0
-195 202 0
-195 -199 0
-195 -196 0
196 526 -197 0
196 -526 197 0
-196 -526 -197 0
-196 526 197 0
197 -41 -198 0
197 41 198 0
-197 41 -198 0
-197 -41 198 0
198 415 -416 0
198 -415 416 0
-198 -415 -416 0
-198 415 416 0
199 527 -200 0
199 -527 200 0
-199 -527 -200 0
-199 527 200 0
200 -43 -201 0
200 43 201 0
-200 43 -201 0
-200 -43 201 0
201 417 -418 0
201 -417 418 0
-201 -417 -418 0
-201 417 418 0
202 203 206 -209 0
-202 209 0
-202 -206 0
-202 -203 0
203 528 -204 0
203 -528 204 0
-203 -528 -204 0
-203 528 204 0
204 -45 -205 0
204 45 205 0
-204 45 -205 0
-204 -45 205 0
205 419 -420 0
205 -419 420 0
-205 -419 -420 0
-205 419 420 0
206 529 -207 0
206 -529 207 0
-206 -529 -207 0
-206 529 207 0
207 -47 -208 0
207 47 208 0
-207 47 -208 0
-207 -47 208 0
208 421 -422 0
208 -421 422 0
-208 -421 -422 0
-208 421 422 0
209 210 213 -216 0
-209 216 0
-209 -213 0
-209 -210 0
210 530 -211 0
210 -530 211 0
-210 -530 -211 0
-210 530 211 0
211 -49 -212 0
211 49 212 0
-211 49 -212 0
-211 -49 212 0
212 423 -424 0
212 -423 424 0
-212 -423 -424 0
-212 423 424 0
213 531 -214 0
213 -531 214 0
-213 -531 -214 0
-213 531 214 0
214 -51 -215 0
214 51 215 0
-214 51 -215 0
-214 -51 215 0
215 425 -426 0
215 -425 426 0
-215 -425 -426 0
-215 425 426 0
216 217 219 -222 0
-216 222 0
-216 -219 0
-216 -217 0
217 532 -218 0
217 -532 218 0
-217 -532 -218 0
-217 532 218 0
218 -53 -132 0
218 53 132 0
-218 53 -132 0
-218 -53 132 0
219 533 -220 0
219 -533 220 0
-219 -533 -220 0
-219 533 220 0
220 -55 -221 0
220 55 221 0
-220 55 -221 0
-220 -55 221 0
221 429 -430 0
221 -429 430 0
-221 -429 -430 0
-221 429 430 0
222 223 226 -229 0
-222 229 0
-222 -226 0
-222 -223 0
223 534 -224 0
223 -534 224 0
-223 -534 -224 0
-223 534 224 0
224 -57 -225 0
224 57 225 0
-224 57 -225 0
-224 -57 225 0
225 431 -432 0
225 -431 432 0
-225 -431 -432 0
-225 431 432 0
226 535 -227 0
226 -535 227 0
-226 -535 -227 0
-226 535 227 0
227 -59 -228 0
227 59 228 0
-227 59 -228 0
-227 -59 228 0
228 433 -434 0
228 -433 434 0
-228 -433 -434 0
-228 433 434 0
229 230 233 -236 0
-229 236 0
-229 -233 0
-229 -230 0
230 536 -231 0
230 -536 231 0
-230 -536 -231 0
-230 536 231 0
231 -61 -232 0
231 61 232 0
-231 61 -232 0
-231 -61 232 0
232 435 -436 0
232 -435 436 0
-232 -435 -436 0
-232 435 436 0
233 537 -234 0
233 -537 234 0
-233 -537 -234 0
-233 537 234 0
234 -63 -235 0
234 63 235 0
-234 63 -235 0
-234 -63 235 0
235 437 -438 0
235 -437 438 0
-235 -437 -438 0
-235 437 438 0
236 237 240 -243 0
-236 243 0
-236 -240 0
-236 -237 0
237 538 -238 0
237 -538 238 0
-237 -538 -238 0
-237 538 238 0
238 -65 -239 0
238 65 239 0
-238 65 -239 0
-238 -65 239 0
239 439 -440 0
239 -439 440 0
-239 -439 -440 0
-239 439 440 0
240 539 -241 0
240 -539 241 0
-240 -539 -241 0
-240 539 241 0
241 -67 -242 0
241 67 242 0
-241 67 -242 0
-241 -67 242 0
242 441 -442 0
242 -441 442 0
-242 -441 -442 0
-242 441 442 0
243 244 247 -250 0
-243 250 0
-243 -247 0
-243 -244 0
244 540 -245 0
244 -540 245 0
-244 -540 -245 0
-244 540 245 0
245 -69 -246 0
245 69 246 0
-245 69 -246 0
-245 -69 246 0
246 443 -444 0
246 -443 444 0
-246 -443 -444 0
-246 443 444 0
247 541 -248 0
247 -541 248 0
-247 -541 -248 0
-247 541 248 0
248 -71 -249 0
248 71 249 0
-248 71 -249 0
-248 -71 249 0
249 445 -446 0
249 -445 446 0
-249 -445 -446 0
-249 445 446 0
250 251 254 -257 0
-250 257 0
-250 -254 0
-250 -251 0
251 542 -252 0
251 -542 252 0
-251 -542 -252 0
-251 542 252 0
252 -73 -253 0
252 73 253 0
-252 73 -253 0
-252 -73 253 0
253 447 -448 0
253 -447 448 0
-253 -447 -448 0
-253 447 448 0
254 543 -255 0
254 -543 255 0
-254 -543 -255 0
-254 543 255 0
255 -75 -256 0
255 75 256 0
-255 75 -256 0
-255 -75 256 0
256 449 -450 0
256 -449 450 0
-256 -449 -450 0
-256 449 450 0
257 258 261 -264 0
-257 264 0
-257 -261 0
-257 -258 0
258 544 -259 0
258 -544 259 0
-258 -544 -259 0
-258 544 259 0
259 -77 -260 0
259 77 260 0
-259 77 -260 0
-259 -77 260 0
260 451 -452 0
260 -451 452 0
-260 -451 -452 0
-260 451 452 0
261 545 -262 0
261 -545 262 0
-261 -545 -262 0
-261 545 262 0
262 -79 -263 0
262 79 263 0
-262 79 -263 0
-262 -79 263 0
263 453 -454 0
263 -453 454 0
-263 -453 -454 0
-263 453 454 0
264 265 268 -271 0
-264 271 0
-264 -268 0
-264 -265 0
265 546 -266 0
265 -546 266 0
-265 -546 -266 0
-265 546 266 0
266 -81 -267 0
266 81 267 0
-266 81 -267 0
-266 -81 267 0
267 455 -456 0
267 -455 456 0
-267 -455 -456 0
-267 455 456 0
268 547 -269 0
268 -547 269 0
-268 -547 -269 0
-268 547 269 0
269 -83 -270 0
269 83 270 0
-269 83 -270 0
-269 -83 270 0
270 457 -458 0
270 -457 458 0
-270 -457 -458 0
-270 457 458 0
271 272 274 -277 0
-271 277 0
-271 -274 0
-271 -272 0
272 548 -273 0
272 -548 273 0
-272 -548 -273 0
-272 548 273 0
273 -85 -131 0
273 85 131 0
-273 85 -131 0
-273 -85 131 0
274 549 -275 0
274 -549 275 0
-274 -549 -275 0
-274 549 275 0
275 -87 -276 0
275 87 276 0
-275 87 -276 0
-275 -87 276 0
276 461 -462 0
276 -461 462 0
-276 -461 -462 0
-276 461 462 0
277 278 281 -284 0
-277 284 0
-277 -281 0
-277 -278 0
278 550 -279 0
278 -550 279 0
-278 -550 -279 0
-278 550 279 0
279 -89 -280 0
279 89 280 0
-279 89 -280 0
-279 -89 280 0
280 463 -464 0
280 -463 464 0
-280 -463 -464 0
-280 463 464 0
281 551 -282 0
281 -551 282 0
-281 -551 -282 0
-281 551 282 0
282 -91 -283 0
282 91 283 0
-282 91 -283 0
-282 -91 283 0
283 465 -466 0
283 -465 466 0
-283 -465 -466 0
-283 465 466 0
284 285 288 -291 0
-284 291 0
-284 -288 0
-284 -285 0
285 552 -286 0
285 -552 286 0
-285 -552 -286 0
-285 552 286 0
286 -93 -287 0
286 93 287 0
-286 93 -287 0
-286 -93 287 0
287 467 -468 0
287 -467 468 0
-287 -467 -468 0
-287 467 468 0
288 553 -289 0
288 -553 289 0
-288 -553 -289 0
-288 553 289 0
289 -95 -290 0
289 95 290 0
-289 95 -290 0
-289 -95 290 0
290 469 -470 0
290 -469 470 0
-290 -469 -470 0
-290 469 470 0
291 292 295 -298 0
-291 298 0
-291 -295 0
-291 -292 0
292 554 -293 0
292 -554 293 0
-292 -554 -293 0
-292 554 293 0
293 -97 -294 0
293 97 294 0
-293 97 -294 0
-293 -97 294 0
294 471 -472 0
294 -471 472 0
-294 -471 -472 0
-294 471 472 0
295 555 -296 0
295 -555 296 0
-295 -555 -296 0
-295 555 296 0
296 -99 -297 0
296 99 297 0
-296 99 -297 0
-296 -99 297 0
297 473 -474 0
297 -473 474 0
-297 -473 -474 0
-297 473 474 0
298 299 302 -305 0
-298 305 0
-298 -302 0
-298 -299 0
299 556 -300 0
299 -556 300 0
-299 -556 -300 0
-299 556 300 0
300 -101 -301 0
300 101 301 0
-300 101 -301 0
-300 -101 301 0
301 475 -476 0
301 -475 476 0
-301 -475 -476 0
-301 475 476 0
302 557 -303 0
302 -557 303 0
-302 -557 -303 0
-302 557 303 0
303 -103 -304 0
303 103 304 0
-303 103 -304 0
-303 -103 304 0
304 477 -478 0
304 -477 478 0
-304 -477 -478 0
-304 477 478 0
305 306 309 -311 0
-305 311 0
-305 -309 0
-305 -306 0
306 558 -307 0
306 -558 307 0
-306 -558 -307 0
-306 558 307 0
307 -105 -308 0
307 105 308 0
-307 105 -308 0
-307 -105 308 0
308 479 -480 0
308 -479 480 0
-308 -479 -480 0
-308 479 480 0
309 559 -310 0
309 -559 310 0
-309 -559 -310 0
-309 559 310 0
310 -107 -130 0
310 107 130 0
-310 107 -130 0
-310 -107 130 0
311 312 315 -318 0
-311 318 0
-311 -315 0
-311 -312 0
312 560 -313 0
312 -560 313 0
-312 -560 -313 0
-312 560 313 0
313 -109 -314 0
313 109 314 0
-313 109 -314 0
-313 -109 314 0
314 483 -484 0
314 -483 484 0
-314 -483 -484 0
-314 483 484 0
315 561 -316 0
315 -561 316 0
-315 -561 -316 0
-315 561 316 0
316 -111 -317 0
316 111 317 0
-316 111 -317 0
-316 -111 317 0
317 485 -486 0
317 -485 486 0
-317 -485 -486 0
-317 485 486 0
318 319 322 -325 0
-318 325 0
-318 -322 0
-318 -319 0
319 562 -320 0
319 -562 320 0
-319 -562 -320 0
-319 562 320 0
320 -113 -321 0
320 113 321 0
-320 113 -321 0
-320 -113 321 0
321 487 -488 0
321 -487 488 0
-321 -487 -488 0
-321 487 488 0
322 563 -323 0
322 -563 323 0
-322 -563 -323 0
-322 563 323 0
323 -115 -324 0
323 115 324 0
-323 115 -324 0
-323 -115 324 0
324 489 -490 0
324 -489 490 0
-324 -489 -490 0
-324 489 490 0
325 326 329 -332 0
-325 332 0
-325 -329 0
-325 -326 0
326 564 -327 0
326 -564 327 0
-326 -564 -327 0
-326 564 327 0
327 -117 -328 0
327 117 328 0
-327 117 -328 0
-327 -117 328 0
328 491 -492 0
328 -491 492 0
-328 -491 -492 0
-328 491 492 0
329 565 -330 0
329 -565 330 0
-329 -565 -330 0
-329 565 330 0
330 -119 -331 0
330 119 331 0
-330 119 -331 0
-330 -119 331 0
331 493 -494 0
331 -493 494 0
-331 -493 -494 0
-331 493 494 0
332 333 336 339 -342 0
-332 342 0
-332 -339 0
-332 -333 0
-332 -336 0
333 566 -334 0
333 -566 334 0
-333 -566 -334 0
-333 566 334 0
334 -121 -335 0
334 121 335 0
-334 121 -335 0
-334 -121 335 0
335 495 -496 0
335 -495 496 0
-335 -495 -496 0
-335 495 496 0
336 567 -337 0
336 -567 337 0
-336 -567 -337 0
-336 567 337 0
337 -123 -338 0
337 123 338 0
-337 123 -338 0
-337 -123 338 0
338 497 -498 0
338 -497 498 0
-338 -497 -498 0
-338 497 498 0
339 568 -340 0
339 -568 340 0
-339 -568 -340 0
-339 568 340 0
340 -125 -341 0
340 125 341 0
-340 125 -341 0
-340 -125 341 0
341 499 -500 0
341 -499 500 0
-341 -499 -500 0
-341 499 500 0
342 343 345 348 0
-342 -343 0
-342 -348 0
-342 -345 0
343 569 -344 0
343 -569 344 0
-343 -569 -344 0
-343 569 344 0
344 -127 -129 0
344 127 129 0
-344 127 -129 0
-344 -127 129 0
345 570 -346 0
345 -570 346 0
-345 -570 -346 0
-345 570 346 0
346 128 -347 0
346 -128 347 0
-346 -128 -347 0
-346 128 347 0
347 503 -504 0
347 -503 504 0
-347 -503 -504 0
-347 503 504 0
348 571 -349 0
348 -571 349 0
-348 -571 -349 0
-348 571 349 0
349 505 -506 0
349 -505 506 0
-349 -505 -506 0
-349 505 506 0
350 343 345 348 -351 0
-350 351 0
-350 -348 0
-350 -343 0
-350 -345 0
351 336 339 -352 0
-351 352 0
-351 -339 0
-351 -336 0
352 329 333 -353 0
-352 353 0
-352 -333 0
-352 -329 0
353 322 326 -354 0
-353 354 0
-353 -326 0
-353 -322 0
354 315 319 -355 0
-354 355 0
-354 -319 0
-354 -315 0
355 309 312 -356 0
-355 356 0
-355 -312 0
-355 -309 0
356 302 306 -357 0
-356 357 0
-356 -306 0
-356 -302 0
357 295 299 -358 0
-357 358 0
-357 -299 0
-357 -295 0
358 288 292 -359 0
-358 359 0
-358 -292 0
-358 -288 0
359 281 285 -360 0
-359 360 0
-359 -285 0
-359 -281 0
360 274 278 -361 0
-360 361 0
-360 -278 0
-360 -274 0
361 268 272 -362 0
-361 362 0
-361 -272 0
-361 -268 0
362 261 265 -363 0
-362 363 0
-362 -265 0
-362 -261 0
363 254 258 -364 0
-363 364 0
-363 -258 0
-363 -254 0
364 247 251 -365 0
-364 365 0
-364 -251 0
-364 -247 0
365 240 244 -366 0
-365 366 0
-365 -244 0
-365 -240 0
366 230 233 237 -367 0
-366 367 0
-366 -237 0
-366 -230 0
-366 -233 0
367 219 223 226 -368 0
-367 368 0
-367 -226 0
-367 -219 0
-367 -223 0
368 213 217 -369 0
-368 369 0
-368 -217 0
-368 -213 0
369 206 210 -370 0
-369 370 0
-369 -210 0
-369 -206 0
370 199 203 -371 0
-370 371 0
-370 -203 0
-370 -199 0
371 192 196 -372 0
-371 372 0
-371 -196 0
-371 -192 0
372 185 189 -373 0
-372 373 0
-372 -189 0
-372 -185 0
373 178 182 -374 0
-373 374 0
-373 -182 0
-373 -178 0
374 171 175 -375 0
-374 375 0
-374 -175 0
-374 -171 0
375 164 168 -376 0
-375 376 0
-375 -168 0
-375 -164 0
376 158 162 -377 0
-376 377 0
-376 -162 0
-376 -158 0
377 151 155 -378 0
-377 378 0
-377 -155 0
-377 -151 0
378 144 148 -379 0
-378 379 0
-378 -148 0
-378 -144 0
379 5 135 141 0
-379 -5 0
-379 -141 0
-379 -135 0
572 0
2 -4 0
-2 4 0
3 -350 0
-3 350 0
3 0

